certificates/rado_a21_c15_N160.cnf
c Rad2 upper bound instance: x1 + 21*x2 - x3 = 15, interval [1,160]
p cnf 160 1288
1 7 0
-1 -7 0
1 2 28 0
-1 -2 -28 0
1 3 49 0
-1 -3 -49 0
1 4 70 0
-1 -4 -70 0
1 5 91 0
-1 -5 -91 0
1 6 112 0
-1 -6 -112 0
1 7 133 0
-1 -7 -133 0
1 8 154 0
-1 -8 -154 0
1 2 8 0
-1 -2 -8 0
2 29 0
-2 -29 0
2 3 50 0
-2 -3 -50 0
2 4 71 0
-2 -4 -71 0
2 5 92 0
-2 -5 -92 0
2 6 113 0
-2 -6 -113 0
2 7 134 0
-2 -7 -134 0
2 8 155 0
-2 -8 -155 0
1 3 9 0
-1 -3 -9 0
2 3 30 0
-2 -3 -30 0
3 51 0
-3 -51 0
3 4 72 0
-3 -4 -72 0
3 5 93 0
-3 -5 -93 0
3 6 114 0
-3 -6 -114 0
3 7 135 0
-3 -7 -135 0
3 8 156 0
-3 -8 -156 0
1 4 10 0
-1 -4 -10 0
2 4 31 0
-2 -4 -31 0
3 4 52 0
-3 -4 -52 0
4 73 0
-4 -73 0
4 5 94 0
-4 -5 -94 0
4 6 115 0
-4 -6 -115 0
4 7 136 0
-4 -7 -136 0
4 8 157 0
-4 -8 -157 0
1 5 11 0
-1 -5 -11 0
2 5 32 0
-2 -5 -32 0
3 5 53 0
-3 -5 -53 0
4 5 74 0
-4 -5 -74 0
5 95 0
-5 -95 0
5 6 116 0
-5 -6 -116 0
5 7 137 0
-5 -7 -137 0
5 8 158 0
-5 -8 -158 0
1 6 12 0
-1 -6 -12 0
2 6 33 0
-2 -6 -33 0
3 6 54 0
-3 -6 -54 0
4 6 75 0
-4 -6 -75 0
5 6 96 0
-5 -6 -96 0
6 117 0
-6 -117 0
6 7 138 0
-6 -7 -138 0
6 8 159 0
-6 -8 -159 0
1 7 13 0
-1 -7 -13 0
2 7 34 0
-2 -7 -34 0
3 7 55 0
-3 -7 -55 0
4 7 76 0
-4 -7 -76 0
5 7 97 0
-5 -7 -97 0
6 7 118 0
-6 -7 -118 0
7 139 0
-7 -139 0
7 8 160 0
-7 -8 -160 0
1 8 14 0
-1 -8 -14 0
2 8 35 0
-2 -8 -35 0
3 8 56 0
-3 -8 -56 0
4 8 77 0
-4 -8 -77 0
5 8 98 0
-5 -8 -98 0
6 8 119 0
-6 -8 -119 0
7 8 140 0
-7 -8 -140 0
1 9 15 0
-1 -9 -15 0
2 9 36 0
-2 -9 -36 0
3 9 57 0
-3 -9 -57 0
4 9 78 0
-4 -9 -78 0
5 9 99 0
-5 -9 -99 0
6 9 120 0
-6 -9 -120 0
7 9 141 0
-7 -9 -141 0
1 10 16 0
-1 -10 -16 0
2 10 37 0
-2 -10 -37 0
3 10 58 0
-3 -10 -58 0
4 10 79 0
-4 -10 -79 0
5 10 100 0
-5 -10 -100 0
6 10 121 0
-6 -10 -121 0
7 10 142 0
-7 -10 -142 0
1 11 17 0
-1 -11 -17 0
2 11 38 0
-2 -11 -38 0
3 11 59 0
-3 -11 -59 0
4 11 80 0
-4 -11 -80 0
5 11 101 0
-5 -11 -101 0
6 11 122 0
-6 -11 -122 0
7 11 143 0
-7 -11 -143 0
1 12 18 0
-1 -12 -18 0
2 12 39 0
-2 -12 -39 0
3 12 60 0
-3 -12 -60 0
4 12 81 0
-4 -12 -81 0
5 12 102 0
-5 -12 -102 0
6 12 123 0
-6 -12 -123 0
7 12 144 0
-7 -12 -144 0
1 13 19 0
-1 -13 -19 0
2 13 40 0
-2 -13 -40 0
3 13 61 0
-3 -13 -61 0
4 13 82 0
-4 -13 -82 0
5 13 103 0
-5 -13 -103 0
6 13 124 0
-6 -13 -124 0
7 13 145 0
-7 -13 -145 0
1 14 20 0
-1 -14 -20 0
2 14 41 0
-2 -14 -41 0
3 14 62 0
-3 -14 -62 0
4 14 83 0
-4 -14 -83 0
5 14 104 0
-5 -14 -104 0
6 14 125 0
-6 -14 -125 0
7 14 146 0
-7 -14 -146 0
1 15 21 0
-1 -15 -21 0
2 15 42 0
-2 -15 -42 0
3 15 63 0
-3 -15 -63 0
4 15 84 0
-4 -15 -84 0
5 15 105 0
-5 -15 -105 0
6 15 126 0
-6 -15 -126 0
7 15 147 0
-7 -15 -147 0
1 16 22 0
-1 -16 -22 0
2 16 43 0
-2 -16 -43 0
3 16 64 0
-3 -16 -64 0
4 16 85 0
-4 -16 -85 0
5 16 106 0
-5 -16 -106 0
6 16 127 0
-6 -16 -127 0
7 16 148 0
-7 -16 -148 0
1 17 23 0
-1 -17 -23 0
2 17 44 0
-2 -17 -44 0
3 17 65 0
-3 -17 -65 0
4 17 86 0
-4 -17 -86 0
5 17 107 0
-5 -17 -107 0
6 17 128 0
-6 -17 -128 0
7 17 149 0
-7 -17 -149 0
1 18 24 0
-1 -18 -24 0
2 18 45 0
-2 -18 -45 0
3 18 66 0
-3 -18 -66 0
4 18 87 0
-4 -18 -87 0
5 18 108 0
-5 -18 -108 0
6 18 129 0
-6 -18 -129 0
7 18 150 0
-7 -18 -150 0
1 19 25 0
-1 -19 -25 0
2 19 46 0
-2 -19 -46 0
3 19 67 0
-3 -19 -67 0
4 19 88 0
-4 -19 -88 0
5 19 109 0
-5 -19 -109 0
6 19 130 0
-6 -19 -130 0
7 19 151 0
-7 -19 -151 0
1 20 26 0
-1 -20 -26 0
2 20 47 0
-2 -20 -47 0
3 20 68 0
-3 -20 -68 0
4 20 89 0
-4 -20 -89 0
5 20 110 0
-5 -20 -110 0
6 20 131 0
-6 -20 -131 0
7 20 152 0
-7 -20 -152 0
1 21 27 0
-1 -21 -27 0
2 21 48 0
-2 -21 -48 0
3 21 69 0
-3 -21 -69 0
4 21 90 0
-4 -21 -90 0
5 21 111 0
-5 -21 -111 0
6 21 132 0
-6 -21 -132 0
7 21 153 0
-7 -21 -153 0
1 22 28 0
-1 -22 -28 0
2 22 49 0
-2 -22 -49 0
3 22 70 0
-3 -22 -70 0
4 22 91 0
-4 -22 -91 0
5 22 112 0
-5 -22 -112 0
6 22 133 0
-6 -22 -133 0
7 22 154 0
-7 -22 -154 0
1 23 29 0
-1 -23 -29 0
2 23 50 0
-2 -23 -50 0
3 23 71 0
-3 -23 -71 0
4 23 92 0
-4 -23 -92 0
5 23 113 0
-5 -23 -113 0
6 23 134 0
-6 -23 -134 0
7 23 155 0
-7 -23 -155 0
1 24 30 0
-1 -24 -30 0
2 24 51 0
-2 -24 -51 0
3 24 72 0
-3 -24 -72 0
4 24 93 0
-4 -24 -93 0
5 24 114 0
-5 -24 -114 0
6 24 135 0
-6 -24 -135 0
7 24 156 0
-7 -24 -156 0
1 25 31 0
-1 -25 -31 0
2 25 52 0
-2 -25 -52 0
3 25 73 0
-3 -25 -73 0
4 25 94 0
-4 -25 -94 0
5 25 115 0
-5 -25 -115 0
6 25 136 0
-6 -25 -136 0
7 25 157 0
-7 -25 -157 0
1 26 32 0
-1 -26 -32 0
2 26 53 0
-2 -26 -53 0
3 26 74 0
-3 -26 -74 0
4 26 95 0
-4 -26 -95 0
5 26 116 0
-5 -26 -116 0
6 26 137 0
-6 -26 -137 0
7 26 158 0
-7 -26 -158 0
1 27 33 0
-1 -27 -33 0
2 27 54 0
-2 -27 -54 0
3 27 75 0
-3 -27 -75 0
4 27 96 0
-4 -27 -96 0
5 27 117 0
-5 -27 -117 0
6 27 138 0
-6 -27 -138 0
7 27 159 0
-7 -27 -159 0
1 28 34 0
-1 -28 -34 0
2 28 55 0
-2 -28 -55 0
3 28 76 0
-3 -28 -76 0
4 28 97 0
-4 -28 -97 0
5 28 118 0
-5 -28 -118 0
6 28 139 0
-6 -28 -139 0
7 28 160 0
-7 -28 -160 0
1 29 35 0
-1 -29 -35 0
2 29 56 0
-2 -29 -56 0
3 29 77 0
-3 -29 -77 0
4 29 98 0
-4 -29 -98 0
5 29 119 0
-5 -29 -119 0
6 29 140 0
-6 -29 -140 0
1 30 36 0
-1 -30 -36 0
2 30 57 0
-2 -30 -57 0
3 30 78 0
-3 -30 -78 0
4 30 99 0
-4 -30 -99 0
5 30 120 0
-5 -30 -120 0
6 30 141 0
-6 -30 -141 0
1 31 37 0
-1 -31 -37 0
2 31 58 0
-2 -31 -58 0
3 31 79 0
-3 -31 -79 0
4 31 100 0
-4 -31 -100 0
5 31 121 0
-5 -31 -121 0
6 31 142 0
-6 -31 -142 0
1 32 38 0
-1 -32 -38 0
2 32 59 0
-2 -32 -59 0
3 32 80 0
-3 -32 -80 0
4 32 101 0
-4 -32 -101 0
5 32 122 0
-5 -32 -122 0
6 32 143 0
-6 -32 -143 0
1 33 39 0
-1 -33 -39 0
2 33 60 0
-2 -33 -60 0
3 33 81 0
-3 -33 -81 0
4 33 102 0
-4 -33 -102 0
5 33 123 0
-5 -33 -123 0
6 33 144 0
-6 -33 -144 0
1 34 40 0
-1 -34 -40 0
2 34 61 0
-2 -34 -61 0
3 34 82 0
-3 -34 -82 0
4 34 103 0
-4 -34 -103 0
5 34 124 0
-5 -34 -124 0
6 34 145 0
-6 -34 -145 0
1 35 41 0
-1 -35 -41 0
2 35 62 0
-2 -35 -62 0
3 35 83 0
-3 -35 -83 0
4 35 104 0
-4 -35 -104 0
5 35 125 0
-5 -35 -125 0
6 35 146 0
-6 -35 -146 0
1 36 42 0
-1 -36 -42 0
2 36 63 0
-2 -36 -63 0
3 36 84 0
-3 -36 -84 0
4 36 105 0
-4 -36 -105 0
5 36 126 0
-5 -36 -126 0
6 36 147 0
-6 -36 -147 0
1 37 43 0
-1 -37 -43 0
2 37 64 0
-2 -37 -64 0
3 37 85 0
-3 -37 -85 0
4 37 106 0
-4 -37 -106 0
5 37 127 0
-5 -37 -127 0
6 37 148 0
-6 -37 -148 0
1 38 44 0
-1 -38 -44 0
2 38 65 0
-2 -38 -65 0
3 38 86 0
-3 -38 -86 0
4 38 107 0
-4 -38 -107 0
5 38 128 0
-5 -38 -128 0
6 38 149 0
-6 -38 -149 0
1 39 45 0
-1 -39 -45 0
2 39 66 0
-2 -39 -66 0
3 39 87 0
-3 -39 -87 0
4 39 108 0
-4 -39 -108 0
5 39 129 0
-5 -39 -129 0
6 39 150 0
-6 -39 -150 0
1 40 46 0
-1 -40 -46 0
2 40 67 0
-2 -40 -67 0
3 40 88 0
-3 -40 -88 0
4 40 109 0
-4 -40 -109 0
5 40 130 0
-5 -40 -130 0
6 40 151 0
-6 -40 -151 0
1 41 47 0
-1 -41 -47 0
2 41 68 0
-2 -41 -68 0
3 41 89 0
-3 -41 -89 0
4 41 110 0
-4 -41 -110 0
5 41 131 0
-5 -41 -131 0
6 41 152 0
-6 -41 -152 0
1 42 48 0
-1 -42 -48 0
2 42 69 0
-2 -42 -69 0
3 42 90 0
-3 -42 -90 0
4 42 111 0
-4 -42 -111 0
5 42 132 0
-5 -42 -132 0
6 42 153 0
-6 -42 -153 0
1 43 49 0
-1 -43 -49 0
2 43 70 0
-2 -43 -70 0
3 43 91 0
-3 -43 -91 0
4 43 112 0
-4 -43 -112 0
5 43 133 0
-5 -43 -133 0
6 43 154 0
-6 -43 -154 0
1 44 50 0
-1 -44 -50 0
2 44 71 0
-2 -44 -71 0
3 44 92 0
-3 -44 -92 0
4 44 113 0
-4 -44 -113 0
5 44 134 0
-5 -44 -134 0
6 44 155 0
-6 -44 -155 0
1 45 51 0
-1 -45 -51 0
2 45 72 0
-2 -45 -72 0
3 45 93 0
-3 -45 -93 0
4 45 114 0
-4 -45 -114 0
5 45 135 0
-5 -45 -135 0
6 45 156 0
-6 -45 -156 0
1 46 52 0
-1 -46 -52 0
2 46 73 0
-2 -46 -73 0
3 46 94 0
-3 -46 -94 0
4 46 115 0
-4 -46 -115 0
5 46 136 0
-5 -46 -136 0
6 46 157 0
-6 -46 -157 0
1 47 53 0
-1 -47 -53 0
2 47 74 0
-2 -47 -74 0
3 47 95 0
-3 -47 -95 0
4 47 116 0
-4 -47 -116 0
5 47 137 0
-5 -47 -137 0
6 47 158 0
-6 -47 -158 0
1 48 54 0
-1 -48 -54 0
2 48 75 0
-2 -48 -75 0
3 48 96 0
-3 -48 -96 0
4 48 117 0
-4 -48 -117 0
5 48 138 0
-5 -48 -138 0
6 48 159 0
-6 -48 -159 0
1 49 55 0
-1 -49 -55 0
2 49 76 0
-2 -49 -76 0
3 49 97 0
-3 -49 -97 0
4 49 118 0
-4 -49 -118 0
5 49 139 0
-5 -49 -139 0
6 49 160 0
-6 -49 -160 0
1 50 56 0
-1 -50 -56 0
2 50 77 0
-2 -50 -77 0
3 50 98 0
-3 -50 -98 0
4 50 119 0
-4 -50 -119 0
5 50 140 0
-5 -50 -140 0
1 51 57 0
-1 -51 -57 0
2 51 78 0
-2 -51 -78 0
3 51 99 0
-3 -51 -99 0
4 51 120 0
-4 -51 -120 0
5 51 141 0
-5 -51 -141 0
1 52 58 0
-1 -52 -58 0
2 52 79 0
-2 -52 -79 0
3 52 100 0
-3 -52 -100 0
4 52 121 0
-4 -52 -121 0
5 52 142 0
-5 -52 -142 0
1 53 59 0
-1 -53 -59 0
2 53 80 0
-2 -53 -80 0
3 53 101 0
-3 -53 -101 0
4 53 122 0
-4 -53 -122 0
5 53 143 0
-5 -53 -143 0
1 54 60 0
-1 -54 -60 0
2 54 81 0
-2 -54 -81 0
3 54 102 0
-3 -54 -102 0
4 54 123 0
-4 -54 -123 0
5 54 144 0
-5 -54 -144 0
1 55 61 0
-1 -55 -61 0
2 55 82 0
-2 -55 -82 0
3 55 103 0
-3 -55 -103 0
4 55 124 0
-4 -55 -124 0
5 55 145 0
-5 -55 -145 0
1 56 62 0
-1 -56 -62 0
2 56 83 0
-2 -56 -83 0
3 56 104 0
-3 -56 -104 0
4 56 125 0
-4 -56 -125 0
5 56 146 0
-5 -56 -146 0
1 57 63 0
-1 -57 -63 0
2 57 84 0
-2 -57 -84 0
3 57 105 0
-3 -57 -105 0
4 57 126 0
-4 -57 -126 0
5 57 147 0
-5 -57 -147 0
1 58 64 0
-1 -58 -64 0
2 58 85 0
-2 -58 -85 0
3 58 106 0
-3 -58 -106 0
4 58 127 0
-4 -58 -127 0
5 58 148 0
-5 -58 -148 0
1 59 65 0
-1 -59 -65 0
2 59 86 0
-2 -59 -86 0
3 59 107 0
-3 -59 -107 0
4 59 128 0
-4 -59 -128 0
5 59 149 0
-5 -59 -149 0
1 60 66 0
-1 -60 -66 0
2 60 87 0
-2 -60 -87 0
3 60 108 0
-3 -60 -108 0
4 60 129 0
-4 -60 -129 0
5 60 150 0
-5 -60 -150 0
1 61 67 0
-1 -61 -67 0
2 61 88 0
-2 -61 -88 0
3 61 109 0
-3 -61 -109 0
4 61 130 0
-4 -61 -130 0
5 61 151 0
-5 -61 -151 0
1 62 68 0
-1 -62 -68 0
2 62 89 0
-2 -62 -89 0
3 62 110 0
-3 -62 -110 0
4 62 131 0
-4 -62 -131 0
5 62 152 0
-5 -62 -152 0
1 63 69 0
-1 -63 -69 0
2 63 90 0
-2 -63 -90 0
3 63 111 0
-3 -63 -111 0
4 63 132 0
-4 -63 -132 0
5 63 153 0
-5 -63 -153 0
1 64 70 0
-1 -64 -70 0
2 64 91 0
-2 -64 -91 0
3 64 112 0
-3 -64 -112 0
4 64 133 0
-4 -64 -133 0
5 64 154 0
-5 -64 -154 0
1 65 71 0
-1 -65 -71 0
2 65 92 0
-2 -65 -92 0
3 65 113 0
-3 -65 -113 0
4 65 134 0
-4 -65 -134 0
5 65 155 0
-5 -65 -155 0
1 66 72 0
-1 -66 -72 0
2 66 93 0
-2 -66 -93 0
3 66 114 0
-3 -66 -114 0
4 66 135 0
-4 -66 -135 0
5 66 156 0
-5 -66 -156 0
1 67 73 0
-1 -67 -73 0
2 67 94 0
-2 -67 -94 0
3 67 115 0
-3 -67 -115 0
4 67 136 0
-4 -67 -136 0
5 67 157 0
-5 -67 -157 0
1 68 74 0
-1 -68 -74 0
2 68 95 0
-2 -68 -95 0
3 68 116 0
-3 -68 -116 0
4 68 137 0
-4 -68 -137 0
5 68 158 0
-5 -68 -158 0
1 69 75 0
-1 -69 -75 0
2 69 96 0
-2 -69 -96 0
3 69 117 0
-3 -69 -117 0
4 69 138 0
-4 -69 -138 0
5 69 159 0
-5 -69 -159 0
1 70 76 0
-1 -70 -76 0
2 70 97 0
-2 -70 -97 0
3 70 118 0
-3 -70 -118 0
4 70 139 0
-4 -70 -139 0
5 70 160 0
-5 -70 -160 0
1 71 77 0
-1 -71 -77 0
2 71 98 0
-2 -71 -98 0
3 71 119 0
-3 -71 -119 0
4 71 140 0
-4 -71 -140 0
1 72 78 0
-1 -72 -78 0
2 72 99 0
-2 -72 -99 0
3 72 120 0
-3 -72 -120 0
4 72 141 0
-4 -72 -141 0
1 73 79 0
-1 -73 -79 0
2 73 100 0
-2 -73 -100 0
3 73 121 0
-3 -73 -121 0
4 73 142 0
-4 -73 -142 0
1 74 80 0
-1 -74 -80 0
2 74 101 0
-2 -74 -101 0
3 74 122 0
-3 -74 -122 0
4 74 143 0
-4 -74 -143 0
1 75 81 0
-1 -75 -81 0
2 75 102 0
-2 -75 -102 0
3 75 123 0
-3 -75 -123 0
4 75 144 0
-4 -75 -144 0
1 76 82 0
-1 -76 -82 0
2 76 103 0
-2 -76 -103 0
3 76 124 0
-3 -76 -124 0
4 76 145 0
-4 -76 -145 0
1 77 83 0
-1 -77 -83 0
2 77 104 0
-2 -77 -104 0
3 77 125 0
-3 -77 -125 0
4 77 146 0
-4 -77 -146 0
1 78 84 0
-1 -78 -84 0
2 78 105 0
-2 -78 -105 0
3 78 126 0
-3 -78 -126 0
4 78 147 0
-4 -78 -147 0
1 79 85 0
-1 -79 -85 0
2 79 106 0
-2 -79 -106 0
3 79 127 0
-3 -79 -127 0
4 79 148 0
-4 -79 -148 0
1 80 86 0
-1 -80 -86 0
2 80 107 0
-2 -80 -107 0
3 80 128 0
-3 -80 -128 0
4 80 149 0
-4 -80 -149 0
1 81 87 0
-1 -81 -87 0
2 81 108 0
-2 -81 -108 0
3 81 129 0
-3 -81 -129 0
4 81 150 0
-4 -81 -150 0
1 82 88 0
-1 -82 -88 0
2 82 109 0
-2 -82 -109 0
3 82 130 0
-3 -82 -130 0
4 82 151 0
-4 -82 -151 0
1 83 89 0
-1 -83 -89 0
2 83 110 0
-2 -83 -110 0
3 83 131 0
-3 -83 -131 0
4 83 152 0
-4 -83 -152 0
1 84 90 0
-1 -84 -90 0
2 84 111 0
-2 -84 -111 0
3 84 132 0
-3 -84 -132 0
4 84 153 0
-4 -84 -153 0
1 85 91 0
-1 -85 -91 0
2 85 112 0
-2 -85 -112 0
3 85 133 0
-3 -85 -133 0
4 85 154 0
-4 -85 -154 0
1 86 92 0
-1 -86 -92 0
2 86 113 0
-2 -86 -113 0
3 86 134 0
-3 -86 -134 0
4 86 155 0
-4 -86 -155 0
1 87 93 0
-1 -87 -93 0
2 87 114 0
-2 -87 -114 0
3 87 135 0
-3 -87 -135 0
4 87 156 0
-4 -87 -156 0
1 88 94 0
-1 -88 -94 0
2 88 115 0
-2 -88 -115 0
3 88 136 0
-3 -88 -136 0
4 88 157 0
-4 -88 -157 0
1 89 95 0
-1 -89 -95 0
2 89 116 0
-2 -89 -116 0
3 89 137 0
-3 -89 -137 0
4 89 158 0
-4 -89 -158 0
1 90 96 0
-1 -90 -96 0
2 90 117 0
-2 -90 -117 0
3 90 138 0
-3 -90 -138 0
4 90 159 0
-4 -90 -159 0
1 91 97 0
-1 -91 -97 0
2 91 118 0
-2 -91 -118 0
3 91 139 0
-3 -91 -139 0
4 91 160 0
-4 -91 -160 0
1 92 98 0
-1 -92 -98 0
2 92 119 0
-2 -92 -119 0
3 92 140 0
-3 -92 -140 0
1 93 99 0
-1 -93 -99 0
2 93 120 0
-2 -93 -120 0
3 93 141 0
-3 -93 -141 0
1 94 100 0
-1 -94 -100 0
2 94 121 0
-2 -94 -121 0
3 94 142 0
-3 -94 -142 0
1 95 101 0
-1 -95 -101 0
2 95 122 0
-2 -95 -122 0
3 95 143 0
-3 -95 -143 0
1 96 102 0
-1 -96 -102 0
2 96 123 0
-2 -96 -123 0
3 96 144 0
-3 -96 -144 0
1 97 103 0
-1 -97 -103 0
2 97 124 0
-2 -97 -124 0
3 97 145 0
-3 -97 -145 0
1 98 104 0
-1 -98 -104 0
2 98 125 0
-2 -98 -125 0
3 98 146 0
-3 -98 -146 0
1 99 105 0
-1 -99 -105 0
2 99 126 0
-2 -99 -126 0
3 99 147 0
-3 -99 -147 0
1 100 106 0
-1 -100 -106 0
2 100 127 0
-2 -100 -127 0
3 100 148 0
-3 -100 -148 0
1 101 107 0
-1 -101 -107 0
2 101 128 0
-2 -101 -128 0
3 101 149 0
-3 -101 -149 0
1 102 108 0
-1 -102 -108 0
2 102 129 0
-2 -102 -129 0
3 102 150 0
-3 -102 -150 0
1 103 109 0
-1 -103 -109 0
2 103 130 0
-2 -103 -130 0
3 103 151 0
-3 -103 -151 0
1 104 110 0
-1 -104 -110 0
2 104 131 0
-2 -104 -131 0
3 104 152 0
-3 -104 -152 0
1 105 111 0
-1 -105 -111 0
2 105 132 0
-2 -105 -132 0
3 105 153 0
-3 -105 -153 0
1 106 112 0
-1 -106 -112 0
2 106 133 0
-2 -106 -133 0
3 106 154 0
-3 -106 -154 0
1 107 113 0
-1 -107 -113 0
2 107 134 0
-2 -107 -134 0
3 107 155 0
-3 -107 -155 0
1 108 114 0
-1 -108 -114 0
2 108 135 0
-2 -108 -135 0
3 108 156 0
-3 -108 -156 0
1 109 115 0
-1 -109 -115 0
2 109 136 0
-2 -109 -136 0
3 109 157 0
-3 -109 -157 0
1 110 116 0
-1 -110 -116 0
2 110 137 0
-2 -110 -137 0
3 110 158 0
-3 -110 -158 0
1 111 117 0
-1 -111 -117 0
2 111 138 0
-2 -111 -138 0
3 111 159 0
-3 -111 -159 0
1 112 118 0
-1 -112 -118 0
2 112 139 0
-2 -112 -139 0
3 112 160 0
-3 -112 -160 0
1 113 119 0
-1 -113 -119 0
2 113 140 0
-2 -113 -140 0
1 114 120 0
-1 -114 -120 0
2 114 141 0
-2 -114 -141 0
1 115 121 0
-1 -115 -121 0
2 115 142 0
-2 -115 -142 0
1 116 122 0
-1 -116 -122 0
2 116 143 0
-2 -116 -143 0
1 117 123 0
-1 -117 -123 0
2 117 144 0
-2 -117 -144 0
1 118 124 0
-1 -118 -124 0
2 118 145 0
-2 -118 -145 0
1 119 125 0
-1 -119 -125 0
2 119 146 0
-2 -119 -146 0
1 120 126 0
-1 -120 -126 0
2 120 147 0
-2 -120 -147 0
1 121 127 0
-1 -121 -127 0
2 121 148 0
-2 -121 -148 0
1 122 128 0
-1 -122 -128 0
2 122 149 0
-2 -122 -149 0
1 123 129 0
-1 -123 -129 0
2 123 150 0
-2 -123 -150 0
1 124 130 0
-1 -124 -130 0
2 124 151 0
-2 -124 -151 0
1 125 131 0
-1 -125 -131 0
2 125 152 0
-2 -125 -152 0
1 126 132 0
-1 -126 -132 0
2 126 153 0
-2 -126 -153 0
1 127 133 0
-1 -127 -133 0
2 127 154 0
-2 -127 -154 0
1 128 134 0
-1 -128 -134 0
2 128 155 0
-2 -128 -155 0
1 129 135 0
-1 -129 -135 0
2 129 156 0
-2 -129 -156 0
1 130 136 0
-1 -130 -136 0
2 130 157 0
-2 -130 -157 0
1 131 137 0
-1 -131 -137 0
2 131 158 0
-2 -131 -158 0
1 132 138 0
-1 -132 -138 0
2 132 159 0
-2 -132 -159 0
1 133 139 0
-1 -133 -139 0
2 133 160 0
-2 -133 -160 0
1 134 140 0
-1 -134 -140 0
1 135 141 0
-1 -135 -141 0
1 136 142 0
-1 -136 -142 0
1 137 143 0
-1 -137 -143 0
1 138 144 0
-1 -138 -144 0
1 139 145 0
-1 -139 -145 0
1 140 146 0
-1 -140 -146 0
1 141 147 0
-1 -141 -147 0
1 142 148 0
-1 -142 -148 0
1 143 149 0
-1 -143 -149 0
1 144 150 0
-1 -144 -150 0
1 145 151 0
-1 -145 -151 0
1 146 152 0
-1 -146 -152 0
1 147 153 0
-1 -147 -153 0
1 148 154 0
-1 -148 -154 0
1 149 155 0
-1 -149 -155 0
1 150 156 0
-1 -150 -156 0
1 151 157 0
-1 -151 -157 0
1 152 158 0
-1 -152 -158 0
1 153 159 0
-1 -153 -159 0
1 154 160 0
-1 -154 -160 0
