certificates/rado_a21_c15_N160.drat
-154 -160 0
d -154 -1 -160 0
22 28 154 0
-7 -160 0
-160 0
154 0
7 0
-1 0
-139 0
-22 0
145 0
133 0
28 0
16 0
-13 0
-148 0
19 0
142 0
-151 0
-10 0
157 0
4 0
-25 0
-73 0
-136 0
-8 0
-76 0
-88 0
-97 0
-64 0
-85 0
31 0
79 0
67 0
3 0
130 0
6 0
14 0
2 0
82 0
70 0
94 0
103 0
91 0
58 0
0
